55
17
0 18 21 23 24 25 26 27 30 32 35 38 41 42 43 44 47 48 49 50 53 54
1 18 19 23 24 25 26 27 29 30 32 35 36 37 38 40 41 42 43 44 45 47 48 50 52 53
2 18 19 21 22 23 24 25 26 28 30 31 32 34 35 38 39 41 42 43 47 48 50 53 54
3 18 19 20 21 23 24 25 26 27 30 32 36 38 39 40 42 43 44 48 49 50 53 54
4 18 21 22 23 24 25 26 29 30 31 32 35 39 41 42 44 47 48 49 50 52 54
5 19 20 21 22 23 24 26 27 29 30 31 32 35 36 37 38 39 40 41 43 44 45 46 47 48 50 51 53 54
6 19 22 23 26 27 28 30 32 35 36 38 39 41 43 44 47 48 53 54
7 18 19 22 24 25 29 30 31 32 37 38 39 40 41 49 50 54
8 18 20 22 24 25 26 29 32 38 39 40 42 44 47 50
9 21 25 27 28 31 35 39 41 45 49 53
10 18 20 22 27 28 29 33 36 39 42 45 53
11 17 18 19 21 24 30 37 38 46 49 53
12 19 20 24 29 33 38 41 45 54
13 20 21 23 32 38 42 52
14 30 32 33 35 40 43 48 50 53
15 17 25 26 35 42 44 47 52
16
